NAME: SCAIL480_3316_65
COMMENT: Generated as the SCAIL100 dataset for the MIM2025 SCLDC Challenge
TYPE: Multi-Depot CVRP
DEPOTS: 3
DIMENSION: 483
EDGE_WEIGHT_TYPE: EUC_2D
CAPACITY: 32

NODE_COORD_SECTION 
1    949  347 
2    526  864 
3    225  454 
4    383  277 
5    355  444 
6    489  444 
7    323  384 
8    887  862 
9    794  671 
10   884  317 
11   154  81  
12   370  361 
13   356  426 
14   93   223 
15   443  440 
16   559  880 
17   482  440 
18   413  417 
19   9    602 
20   141  632 
21   0    126 
22   8    377 
23   407  382 
24   54   362 
25   57   498 
26   391  523 
27   971  460 
28   592  122 
29   798  883 
30   870  395 
31   860  449 
32   906  574 
33   377  462 
34   73   69  
35   590  615 
36   178  271 
37   170  267 
38   191  61  
39   182  241 
40   455  436 
41   428  144 
42   67   40  
43   764  206 
44   841  480 
45   363  438 
46   854  935 
47   330  288 
48   5    311 
49   656  803 
50   80   103 
51   118  633 
52   773  970 
53   848  744 
54   892  503 
55   819  52  
56   435  407 
57   352  409 
58   374  415 
59   349  242 
60   851  516 
61   35   320 
62   325  406 
63   674  145 
64   478  270 
65   158  427 
66   276  550 
67   743  34  
68   389  427 
69   279  564 
70   991  266 
71   77   331 
72   861  565 
73   176  310 
74   716  156 
75   898  560 
76   611  390 
77   48   133 
78   452  473 
79   781  429 
80   384  375 
81   508  163 
82   281  600 
83   286  297 
84   222  132 
85   706  358 
86   724  406 
87   709  930 
88   619  609 
89   277  351 
90   323  467 
91   498  319 
92   6    293 
93   601  210 
94   761  967 
95   723  950 
96   347  452 
97   416  155 
98   650  233 
99   82   804 
100  106  496 
101  388  322 
102  443  514 
103  566  755 
104  275  54  
105  325  549 
106  564  660 
107  924  310 
108  947  550 
109  942  453 
110  441  607 
111  479  719 
112  862  609 
113  18   342 
114  135  271 
115  339  159 
116  274  295 
117  376  590 
118  93   283 
119  73   314 
120  469  381 
121  303  367 
122  244  290 
123  274  578 
124  282  164 
125  148  978 
126  353  215 
127  216  466 
128  450  642 
129  503  568 
130  407  460 
131  198  942 
132  454  401 
133  110  75  
134  735  429 
135  295  731 
136  302  25  
137  134  167 
138  440  75  
139  223  891 
140  845  654 
141  881  586 
142  546  98  
143  481  368 
144  628  158 
145  883  784 
146  138  816 
147  38   320 
148  771  728 
149  344  246 
150  983  480 
151  441  435 
152  785  919 
153  69   145 
154  918  463 
155  582  675 
156  848  404 
157  49   50  
158  184  531 
159  60   199 
160  758  757 
161  716  513 
162  373  430 
163  987  351 
164  38   315 
165  282  266 
166  557  632 
167  293  940 
168  301  145 
169  754  270 
170  432  219 
171  481  996 
172  232  539 
173  538  484 
174  878  165 
175  459  200 
176  910  621 
177  568  363 
178  166  859 
179  813  450 
180  451  628 
181  358  409 
182  714  849 
183  146  108 
184  361  572 
185  344  501 
186  160  253 
187  911  338 
188  383  420 
189  372  856 
190  309  391 
191  534  500 
192  353  577 
193  401  245 
194  870  58  
195  702  843 
196  662  114 
197  951  415 
198  944  892 
199  838  218 
200  533  238 
201  72   181 
202  176  257 
203  103  7   
204  125  53  
205  484  638 
206  367  489 
207  374  348 
208  908  300 
209  411  397 
210  140  428 
211  215  202 
212  94   577 
213  71   194 
214  174  862 
215  377  358 
216  199  379 
217  724  591 
218  57   295 
219  429  414 
220  42   670 
221  486  966 
222  369  390 
223  488  338 
224  342  302 
225  123  105 
226  438  620 
227  53   302 
228  3    292 
229  569  38  
230  586  118 
231  275  598 
232  307  392 
233  259  501 
234  591  992 
235  754  879 
236  544  502 
237  953  432 
238  80   138 
239  133  141 
240  18   392 
241  20   93  
242  992  616 
243  400  741 
244  641  300 
245  163  541 
246  342  256 
247  842  960 
248  198  480 
249  226  737 
250  177  30  
251  480  315 
252  493  672 
253  201  671 
254  662  382 
255  176  754 
256  165  586 
257  510  370 
258  9    186 
259  184  56  
260  382  449 
261  827  827 
262  831  550 
263  32   992 
264  933  570 
265  400  354 
266  266  103 
267  259  253 
268  245  80  
269  380  363 
270  437  906 
271  26   112 
272  92   332 
273  536  381 
274  885  642 
275  879  482 
276  61   344 
277  763  774 
278  668  375 
279  746  703 
280  224  249 
281  105  298 
282  720  574 
283  876  184 
284  44   300 
285  255  987 
286  72   102 
287  984  531 
288  106  113 
289  84   113 
290  989  308 
291  119  52  
292  982  278 
293  160  340 
294  810  342 
295  728  25  
296  953  381 
297  363  287 
298  645  930 
299  123  49  
300  869  266 
301  777  21  
302  548  588 
303  906  342 
304  369  455 
305  118  455 
306  407  756 
307  346  499 
308  350  460 
309  313  331 
310  361  380 
311  114  94  
312  135  135 
313  169  48  
314  426  464 
315  127  140 
316  363  26  
317  162  521 
318  179  452 
319  985  463 
320  356  413 
321  184  405 
322  50   325 
323  926  395 
324  164  81  
325  341  388 
326  201  350 
327  487  51  
328  64   1000
329  547  349 
330  352  500 
331  207  182 
332  486  500 
333  844  492 
334  266  991 
335  400  415 
336  159  227 
337  60   266 
338  891  661 
339  287  165 
340  342  348 
341  323  496 
342  702  273 
343  909  813 
344  296  479 
345  684  66  
346  703  79  
347  929  153 
348  197  118 
349  853  423 
350  347  310 
351  940  437 
352  264  266 
353  206  432 
354  53   339 
355  932  554 
356  433  340 
357  256  945 
358  245  298 
359  43   163 
360  262  305 
361  99   189 
362  983  501 
363  156  67  
364  42   320 
365  286  671 
366  303  751 
367  738  679 
368  299  628 
369  421  325 
370  772  430 
371  761  829 
372  395  452 
373  446  921 
374  490  442 
375  837  824 
376  801  767 
377  815  903 
378  724  892 
379  347  8   
380  101  364 
381  711  46  
382  924  666 
383  23   283 
384  243  304 
385  781  910 
386  391  477 
387  330  229 
388  516  319 
389  165  659 
390  516  337 
391  196  494 
392  134  528 
393  761  671 
394  480  509 
395  126  160 
396  378  232 
397  954  666 
398  543  58  
399  719  781 
400  174  740 
401  303  58  
402  63   989 
403  899  757 
404  153  406 
405  377  928 
406  521  573 
407  919  830 
408  275  679 
409  300  434 
410  6    365 
411  815  781 
412  459  216 
413  430  418 
414  246  319 
415  856  428 
416  77   281 
417  338  420 
418  657  447 
419  79   583 
420  891  497 
421  699  812 
422  936  258 
423  42   161 
424  543  165 
425  262  164 
426  999  277 
427  687  447 
428  595  629 
429  500  468 
430  340  339 
431  278  266 
432  722  23  
433  975  441 
434  860  658 
435  905  382 
436  504  465 
437  785  475 
438  230  73  
439  17   365 
440  436  339 
441  491  513 
442  383  440 
443  395  405 
444  93   94  
445  263  115 
446  546  485 
447  44   992 
448  370  479 
449  815  353 
450  187  394 
451  226  224 
452  459  426 
453  266  40  
454  77   253 
455  510  666 
456  464  806 
457  907  701 
458  990  327 
459  298  764 
460  546  835 
461  75   45  
462  216  569 
463  639  779 
464  632  236 
465  568  81  
466  935  521 
467  277  8   
468  432  458 
469  108  96  
470  64   965 
471  491  373 
472  303  411 
473  440  398 
474  550  706 
475  788  843 
476  158  456 
477  153  112 
478  581  797 
479  946  153 
480  429  281 
481  163  0   
482  276  444 
483  33   308 

DEMAND_SECTION
1    0   
2    0   
3    0   
4    1   
5    1   
6    1   
7    1   
8    1   
9    1   
10   1   
11   1   
12   1   
13   1   
14   1   
15   1   
16   1   
17   1   
18   1   
19   1   
20   1   
21   1   
22   1   
23   1   
24   1   
25   1   
26   1   
27   1   
28   1   
29   1   
30   1   
31   1   
32   1   
33   1   
34   1   
35   1   
36   1   
37   1   
38   1   
39   1   
40   1   
41   1   
42   1   
43   1   
44   1   
45   1   
46   1   
47   1   
48   1   
49   1   
50   1   
51   1   
52   1   
53   1   
54   1   
55   1   
56   1   
57   1   
58   1   
59   1   
60   1   
61   1   
62   1   
63   1   
64   1   
65   1   
66   1   
67   1   
68   1   
69   1   
70   1   
71   1   
72   1   
73   1   
74   1   
75   1   
76   1   
77   1   
78   1   
79   1   
80   1   
81   1   
82   1   
83   1   
84   1   
85   1   
86   1   
87   1   
88   1   
89   1   
90   1   
91   1   
92   1   
93   1   
94   1   
95   1   
96   1   
97   1   
98   1   
99   1   
100  1   
101  1   
102  1   
103  1   
104  1   
105  1   
106  1   
107  1   
108  1   
109  1   
110  1   
111  1   
112  1   
113  1   
114  1   
115  1   
116  1   
117  1   
118  1   
119  1   
120  1   
121  1   
122  1   
123  1   
124  1   
125  1   
126  1   
127  1   
128  1   
129  1   
130  1   
131  1   
132  1   
133  1   
134  1   
135  1   
136  1   
137  1   
138  1   
139  1   
140  1   
141  1   
142  1   
143  1   
144  1   
145  1   
146  1   
147  1   
148  1   
149  1   
150  1   
151  1   
152  1   
153  1   
154  1   
155  1   
156  1   
157  1   
158  1   
159  1   
160  1   
161  1   
162  1   
163  1   
164  1   
165  1   
166  1   
167  1   
168  1   
169  1   
170  1   
171  1   
172  1   
173  1   
174  1   
175  1   
176  1   
177  1   
178  1   
179  1   
180  1   
181  1   
182  1   
183  1   
184  1   
185  1   
186  1   
187  1   
188  1   
189  1   
190  1   
191  1   
192  1   
193  1   
194  1   
195  1   
196  1   
197  1   
198  1   
199  1   
200  1   
201  1   
202  1   
203  1   
204  1   
205  1   
206  1   
207  1   
208  1   
209  1   
210  1   
211  1   
212  1   
213  1   
214  1   
215  1   
216  1   
217  1   
218  1   
219  1   
220  1   
221  1   
222  1   
223  1   
224  1   
225  1   
226  1   
227  1   
228  1   
229  1   
230  1   
231  1   
232  1   
233  1   
234  1   
235  1   
236  1   
237  1   
238  1   
239  1   
240  1   
241  1   
242  1   
243  1   
244  1   
245  1   
246  1   
247  1   
248  1   
249  1   
250  1   
251  1   
252  1   
253  1   
254  1   
255  1   
256  1   
257  1   
258  1   
259  1   
260  1   
261  1   
262  1   
263  1   
264  1   
265  1   
266  1   
267  1   
268  1   
269  1   
270  1   
271  1   
272  1   
273  1   
274  1   
275  1   
276  1   
277  1   
278  1   
279  1   
280  1   
281  1   
282  1   
283  1   
284  1   
285  1   
286  1   
287  1   
288  1   
289  1   
290  1   
291  1   
292  1   
293  1   
294  1   
295  1   
296  1   
297  1   
298  1   
299  1   
300  1   
301  1   
302  1   
303  1   
304  1   
305  1   
306  1   
307  1   
308  1   
309  1   
310  1   
311  1   
312  1   
313  1   
314  1   
315  1   
316  1   
317  1   
318  1   
319  1   
320  1   
321  1   
322  1   
323  1   
324  1   
325  1   
326  1   
327  1   
328  1   
329  1   
330  1   
331  1   
332  1   
333  1   
334  1   
335  1   
336  1   
337  1   
338  1   
339  1   
340  1   
341  1   
342  1   
343  1   
344  1   
345  1   
346  1   
347  1   
348  1   
349  1   
350  1   
351  1   
352  1   
353  1   
354  1   
355  1   
356  1   
357  1   
358  1   
359  1   
360  1   
361  1   
362  1   
363  1   
364  1   
365  1   
366  1   
367  1   
368  1   
369  1   
370  1   
371  1   
372  1   
373  1   
374  1   
375  1   
376  1   
377  1   
378  1   
379  1   
380  1   
381  1   
382  1   
383  1   
384  1   
385  1   
386  1   
387  1   
388  1   
389  1   
390  1   
391  1   
392  1   
393  1   
394  1   
395  1   
396  1   
397  1   
398  1   
399  1   
400  1   
401  1   
402  1   
403  1   
404  1   
405  1   
406  1   
407  1   
408  1   
409  1   
410  1   
411  1   
412  1   
413  1   
414  1   
415  1   
416  1   
417  1   
418  1   
419  1   
420  1   
421  1   
422  1   
423  1   
424  1   
425  1   
426  1   
427  1   
428  1   
429  1   
430  1   
431  1   
432  1   
433  1   
434  1   
435  1   
436  1   
437  1   
438  1   
439  1   
440  1   
441  1   
442  1   
443  1   
444  1   
445  1   
446  1   
447  1   
448  1   
449  1   
450  1   
451  1   
452  1   
453  1   
454  1   
455  1   
456  1   
457  1   
458  1   
459  1   
460  1   
461  1   
462  1   
463  1   
464  1   
465  1   
466  1   
467  1   
468  1   
469  1   
470  1   
471  1   
472  1   
473  1   
474  1   
475  1   
476  1   
477  1   
478  1   
479  1   
480  1   
481  1   
482  1   
483  1   

DEPOT_SECTION
1    949  347 
2    526  864 
3    225  454 
-1
EOF
